c Generated from Nested-Unit Petri Net model NUPN2/4054.nupn
c (C) 2020 Pierre Bouvier and Hubert Garavel at INRIA Grenoble Rhône-Alpes
c Produced by the CONVECS research team (http://convecs.inria.fr)
c Licensed under CC-BY Creative Commons Attribution 4.0 International License
c (license terms available from http://creativecommons.org/licenses/by/4.0)
p cnf 240 1624
1 0
7 8 0
13 14 15 0
19 20 21 22 0
25 26 27 28 29 0
31 32 33 34 35 36 0
37 38 39 40 41 42 0
43 44 45 46 47 48 0
49 50 51 52 53 54 0
55 56 57 58 59 60 0
61 62 63 64 65 66 0
67 68 69 70 71 72 0
73 74 75 76 77 78 0
79 80 81 82 83 84 0
85 86 87 88 89 90 0
91 92 93 94 95 96 0
97 98 99 100 101 102 0
103 104 105 106 107 108 0
109 110 111 112 113 114 0
115 116 117 118 119 120 0
121 122 123 124 125 126 0
127 128 129 130 131 132 0
133 134 135 136 137 138 0
139 140 141 142 143 144 0
145 146 147 148 149 150 0
151 152 153 154 155 156 0
157 158 159 160 161 162 0
163 164 165 166 167 168 0
169 170 171 172 173 174 0
175 176 177 178 179 180 0
181 182 183 184 185 186 0
187 188 189 190 191 192 0
193 194 195 196 197 198 0
199 200 201 202 203 204 0
205 206 207 208 209 210 0
211 212 213 214 215 216 0
217 218 219 220 221 222 0
223 224 225 226 227 228 0
229 230 231 232 233 234 0
235 236 237 238 239 240 0
-85 -157 0
-86 -158 0
-87 -159 0
-88 -160 0
-89 -161 0
-90 -162 0
-79 -97 0
-80 -98 0
-81 -99 0
-82 -100 0
-83 -101 0
-84 -102 0
-55 -97 0
-56 -98 0
-57 -99 0
-58 -100 0
-59 -101 0
-60 -102 0
-37 -67 0
-38 -68 0
-39 -69 0
-40 -70 0
-41 -71 0
-42 -72 0
-19 -211 0
-20 -212 0
-21 -213 0
-22 -214 0
-23 -215 0
-24 -216 0
-73 -97 0
-74 -98 0
-75 -99 0
-76 -100 0
-77 -101 0
-78 -102 0
-97 -145 0
-98 -146 0
-99 -147 0
-100 -148 0
-101 -149 0
-102 -150 0
-103 -175 0
-104 -176 0
-105 -177 0
-106 -178 0
-107 -179 0
-108 -180 0
-73 -187 0
-74 -188 0
-75 -189 0
-76 -190 0
-77 -191 0
-78 -192 0
-67 -235 0
-68 -236 0
-69 -237 0
-70 -238 0
-71 -239 0
-72 -240 0
-109 -235 0
-110 -236 0
-111 -237 0
-112 -238 0
-113 -239 0
-114 -240 0
-43 -139 0
-44 -140 0
-45 -141 0
-46 -142 0
-47 -143 0
-48 -144 0
-19 -109 0
-20 -110 0
-21 -111 0
-22 -112 0
-23 -113 0
-24 -114 0
-115 -205 0
-116 -206 0
-117 -207 0
-118 -208 0
-119 -209 0
-120 -210 0
-151 -187 0
-152 -188 0
-153 -189 0
-154 -190 0
-155 -191 0
-156 -192 0
-31 -55 0
-32 -56 0
-33 -57 0
-34 -58 0
-35 -59 0
-36 -60 0
-115 -175 0
-116 -176 0
-117 -177 0
-118 -178 0
-119 -179 0
-120 -180 0
-61 -127 0
-62 -128 0
-63 -129 0
-64 -130 0
-65 -131 0
-66 -132 0
-55 -103 0
-56 -104 0
-57 -105 0
-58 -106 0
-59 -107 0
-60 -108 0
-163 -205 0
-164 -206 0
-165 -207 0
-166 -208 0
-167 -209 0
-168 -210 0
-91 -127 0
-92 -128 0
-93 -129 0
-94 -130 0
-95 -131 0
-96 -132 0
-121 -181 0
-122 -182 0
-123 -183 0
-124 -184 0
-125 -185 0
-126 -186 0
-67 -97 0
-68 -98 0
-69 -99 0
-70 -100 0
-71 -101 0
-72 -102 0
-49 -211 0
-50 -212 0
-51 -213 0
-52 -214 0
-53 -215 0
-54 -216 0
-97 -133 0
-98 -134 0
-99 -135 0
-100 -136 0
-101 -137 0
-102 -138 0
-55 -205 0
-56 -206 0
-57 -207 0
-58 -208 0
-59 -209 0
-60 -210 0
-43 -85 0
-44 -86 0
-45 -87 0
-46 -88 0
-47 -89 0
-48 -90 0
-97 -211 0
-98 -212 0
-99 -213 0
-100 -214 0
-101 -215 0
-102 -216 0
-19 -55 0
-20 -56 0
-21 -57 0
-22 -58 0
-23 -59 0
-24 -60 0
-67 -199 0
-68 -200 0
-69 -201 0
-70 -202 0
-71 -203 0
-72 -204 0
-211 -229 0
-212 -230 0
-213 -231 0
-214 -232 0
-215 -233 0
-216 -234 0
-85 -199 0
-86 -200 0
-87 -201 0
-88 -202 0
-89 -203 0
-90 -204 0
-73 -205 0
-74 -206 0
-75 -207 0
-76 -208 0
-77 -209 0
-78 -210 0
-139 -229 0
-140 -230 0
-141 -231 0
-142 -232 0
-143 -233 0
-144 -234 0
-19 -91 0
-20 -92 0
-21 -93 0
-22 -94 0
-23 -95 0
-24 -96 0
-115 -187 0
-116 -188 0
-117 -189 0
-118 -190 0
-119 -191 0
-120 -192 0
-55 -139 0
-56 -140 0
-57 -141 0
-58 -142 0
-59 -143 0
-60 -144 0
-7 -187 0
-8 -188 0
-9 -189 0
-10 -190 0
-11 -191 0
-12 -192 0
-85 -169 0
-86 -170 0
-87 -171 0
-88 -172 0
-89 -173 0
-90 -174 0
-79 -85 0
-80 -86 0
-81 -87 0
-82 -88 0
-83 -89 0
-84 -90 0
-31 -133 0
-32 -134 0
-33 -135 0
-34 -136 0
-35 -137 0
-36 -138 0
-19 -205 0
-20 -206 0
-21 -207 0
-22 -208 0
-23 -209 0
-24 -210 0
-163 -187 0
-164 -188 0
-165 -189 0
-166 -190 0
-167 -191 0
-168 -192 0
-55 -133 0
-56 -134 0
-57 -135 0
-58 -136 0
-59 -137 0
-60 -138 0
-121 -217 0
-122 -218 0
-123 -219 0
-124 -220 0
-125 -221 0
-126 -222 0
-139 -217 0
-140 -218 0
-141 -219 0
-142 -220 0
-143 -221 0
-144 -222 0
-151 -217 0
-152 -218 0
-153 -219 0
-154 -220 0
-155 -221 0
-156 -222 0
-157 -235 0
-158 -236 0
-159 -237 0
-160 -238 0
-161 -239 0
-162 -240 0
-67 -127 0
-68 -128 0
-69 -129 0
-70 -130 0
-71 -131 0
-72 -132 0
-169 -217 0
-170 -218 0
-171 -219 0
-172 -220 0
-173 -221 0
-174 -222 0
-1 -181 0
-2 -182 0
-3 -183 0
-4 -184 0
-5 -185 0
-6 -186 0
-91 -223 0
-92 -224 0
-93 -225 0
-94 -226 0
-95 -227 0
-96 -228 0
-55 -211 0
-56 -212 0
-57 -213 0
-58 -214 0
-59 -215 0
-60 -216 0
-43 -67 0
-44 -68 0
-45 -69 0
-46 -70 0
-47 -71 0
-48 -72 0
-97 -229 0
-98 -230 0
-99 -231 0
-100 -232 0
-101 -233 0
-102 -234 0
-79 -211 0
-80 -212 0
-81 -213 0
-82 -214 0
-83 -215 0
-84 -216 0
-19 -85 0
-20 -86 0
-21 -87 0
-22 -88 0
-23 -89 0
-24 -90 0
-67 -229 0
-68 -230 0
-69 -231 0
-70 -232 0
-71 -233 0
-72 -234 0
-103 -211 0
-104 -212 0
-105 -213 0
-106 -214 0
-107 -215 0
-108 -216 0
-85 -193 0
-86 -194 0
-87 -195 0
-88 -196 0
-89 -197 0
-90 -198 0
-139 -211 0
-140 -212 0
-141 -213 0
-142 -214 0
-143 -215 0
-144 -216 0
-19 -151 0
-20 -152 0
-21 -153 0
-22 -154 0
-23 -155 0
-24 -156 0
-13 -103 0
-14 -104 0
-15 -105 0
-16 -106 0
-17 -107 0
-18 -108 0
-19 -121 0
-20 -122 0
-21 -123 0
-22 -124 0
-23 -125 0
-24 -126 0
-61 -85 0
-62 -86 0
-63 -87 0
-64 -88 0
-65 -89 0
-66 -90 0
-55 -169 0
-56 -170 0
-57 -171 0
-58 -172 0
-59 -173 0
-60 -174 0
-7 -217 0
-8 -218 0
-9 -219 0
-10 -220 0
-11 -221 0
-12 -222 0
-115 -217 0
-116 -218 0
-117 -219 0
-118 -220 0
-119 -221 0
-120 -222 0
-31 -91 0
-32 -92 0
-33 -93 0
-34 -94 0
-35 -95 0
-36 -96 0
-19 -187 0
-20 -188 0
-21 -189 0
-22 -190 0
-23 -191 0
-24 -192 0
-163 -217 0
-164 -218 0
-165 -219 0
-166 -220 0
-167 -221 0
-168 -222 0
-31 -229 0
-32 -230 0
-33 -231 0
-34 -232 0
-35 -233 0
-36 -234 0
-175 -187 0
-176 -188 0
-177 -189 0
-178 -190 0
-179 -191 0
-180 -192 0
-67 -157 0
-68 -158 0
-69 -159 0
-70 -160 0
-71 -161 0
-72 -162 0
-169 -235 0
-170 -236 0
-171 -237 0
-172 -238 0
-173 -239 0
-174 -240 0
-97 -169 0
-98 -170 0
-99 -171 0
-100 -172 0
-101 -173 0
-102 -174 0
-103 -151 0
-104 -152 0
-105 -153 0
-106 -154 0
-107 -155 0
-108 -156 0
-97 -199 0
-98 -200 0
-99 -201 0
-100 -202 0
-101 -203 0
-102 -204 0
-19 -67 0
-20 -68 0
-21 -69 0
-22 -70 0
-23 -71 0
-24 -72 0
-67 -211 0
-68 -212 0
-69 -213 0
-70 -214 0
-71 -215 0
-72 -216 0
-85 -211 0
-86 -212 0
-87 -213 0
-88 -214 0
-89 -215 0
-90 -216 0
-19 -181 0
-20 -182 0
-21 -183 0
-22 -184 0
-23 -185 0
-24 -186 0
-13 -97 0
-14 -98 0
-15 -99 0
-16 -100 0
-17 -101 0
-18 -102 0
-115 -151 0
-116 -152 0
-117 -153 0
-118 -154 0
-119 -155 0
-120 -156 0
-55 -175 0
-56 -176 0
-57 -177 0
-58 -178 0
-59 -179 0
-60 -180 0
-37 -85 0
-38 -86 0
-39 -87 0
-40 -88 0
-41 -89 0
-42 -90 0
-85 -133 0
-86 -134 0
-87 -135 0
-88 -136 0
-89 -137 0
-90 -138 0
-19 -217 0
-20 -218 0
-21 -219 0
-22 -220 0
-23 -221 0
-24 -222 0
-49 -235 0
-50 -236 0
-51 -237 0
-52 -238 0
-53 -239 0
-54 -240 0
-43 -187 0
-44 -188 0
-45 -189 0
-46 -190 0
-47 -191 0
-48 -192 0
-37 -139 0
-38 -140 0
-39 -141 0
-40 -142 0
-41 -143 0
-42 -144 0
-67 -139 0
-68 -140 0
-69 -141 0
-70 -142 0
-71 -143 0
-72 -144 0
-205 -235 0
-206 -236 0
-207 -237 0
-208 -238 0
-209 -239 0
-210 -240 0
-97 -139 0
-98 -140 0
-99 -141 0
-100 -142 0
-101 -143 0
-102 -144 0
-79 -163 0
-80 -164 0
-81 -165 0
-82 -166 0
-83 -167 0
-84 -168 0
-19 -163 0
-20 -164 0
-21 -165 0
-22 -166 0
-23 -167 0
-24 -168 0
-85 -145 0
-86 -146 0
-87 -147 0
-88 -148 0
-89 -149 0
-90 -150 0
-31 -61 0
-32 -62 0
-33 -63 0
-34 -64 0
-35 -65 0
-36 -66 0
-25 -97 0
-26 -98 0
-27 -99 0
-28 -100 0
-29 -101 0
-30 -102 0
-115 -181 0
-116 -182 0
-117 -183 0
-118 -184 0
-119 -185 0
-120 -186 0
-55 -109 0
-56 -110 0
-57 -111 0
-58 -112 0
-59 -113 0
-60 -114 0
-133 -199 0
-134 -200 0
-135 -201 0
-136 -202 0
-137 -203 0
-138 -204 0
-187 -229 0
-188 -230 0
-189 -231 0
-190 -232 0
-191 -233 0
-192 -234 0
-67 -103 0
-68 -104 0
-69 -105 0
-70 -106 0
-71 -107 0
-72 -108 0
-13 -235 0
-14 -236 0
-15 -237 0
-16 -238 0
-17 -239 0
-18 -240 0
-97 -127 0
-98 -128 0
-99 -129 0
-100 -130 0
-101 -131 0
-102 -132 0
-193 -223 0
-194 -224 0
-195 -225 0
-196 -226 0
-197 -227 0
-198 -228 0
-55 -187 0
-56 -188 0
-57 -189 0
-58 -190 0
-59 -191 0
-60 -192 0
-97 -157 0
-98 -158 0
-99 -159 0
-100 -160 0
-101 -161 0
-102 -162 0
-79 -235 0
-80 -236 0
-81 -237 0
-82 -238 0
-83 -239 0
-84 -240 0
-19 -61 0
-20 -62 0
-21 -63 0
-22 -64 0
-23 -65 0
-24 -66 0
-67 -205 0
-68 -206 0
-69 -207 0
-70 -208 0
-71 -209 0
-72 -210 0
-103 -187 0
-104 -188 0
-105 -189 0
-106 -190 0
-107 -191 0
-108 -192 0
-97 -235 0
-98 -236 0
-99 -237 0
-100 -238 0
-101 -239 0
-102 -240 0
-139 -235 0
-140 -236 0
-141 -237 0
-142 -238 0
-143 -239 0
-144 -240 0
-25 -55 0
-26 -56 0
-27 -57 0
-28 -58 0
-29 -59 0
-30 -60 0
-145 -217 0
-146 -218 0
-147 -219 0
-148 -220 0
-149 -221 0
-150 -222 0
-19 -97 0
-20 -98 0
-21 -99 0
-22 -100 0
-23 -101 0
-24 -102 0
-55 -145 0
-56 -146 0
-57 -147 0
-58 -148 0
-59 -149 0
-60 -150 0
-85 -163 0
-86 -164 0
-87 -165 0
-88 -166 0
-89 -167 0
-90 -168 0
-55 -115 0
-56 -116 0
-57 -117 0
-58 -118 0
-59 -119 0
-60 -120 0
-43 -229 0
-44 -230 0
-45 -231 0
-46 -232 0
-47 -233 0
-48 -234 0
-37 -97 0
-38 -98 0
-39 -99 0
-40 -100 0
-41 -101 0
-42 -102 0
-25 -193 0
-26 -194 0
-27 -195 0
-28 -196 0
-29 -197 0
-30 -198 0
-67 -133 0
-68 -134 0
-69 -135 0
-70 -136 0
-71 -137 0
-72 -138 0
-169 -211 0
-170 -212 0
-171 -213 0
-172 -214 0
-173 -215 0
-174 -216 0
-175 -211 0
-176 -212 0
-177 -213 0
-178 -214 0
-179 -215 0
-180 -216 0
-37 -199 0
-38 -200 0
-39 -201 0
-40 -202 0
-41 -203 0
-42 -204 0
-13 -85 0
-14 -86 0
-15 -87 0
-16 -88 0
-17 -89 0
-18 -90 0
-55 -217 0
-56 -218 0
-57 -219 0
-58 -220 0
-59 -221 0
-60 -222 0
-97 -223 0
-98 -224 0
-99 -225 0
-100 -226 0
-101 -227 0
-102 -228 0
-79 -217 0
-80 -218 0
-81 -219 0
-82 -220 0
-83 -221 0
-84 -222 0
-67 -187 0
-68 -188 0
-69 -189 0
-70 -190 0
-71 -191 0
-72 -192 0
-211 -217 0
-212 -218 0
-213 -219 0
-214 -220 0
-215 -221 0
-216 -222 0
-103 -217 0
-104 -218 0
-105 -219 0
-106 -220 0
-107 -221 0
-108 -222 0
-85 -187 0
-86 -188 0
-87 -189 0
-88 -190 0
-89 -191 0
-90 -192 0
-73 -217 0
-74 -218 0
-75 -219 0
-76 -220 0
-77 -221 0
-78 -222 0
-19 -157 0
-20 -158 0
-21 -159 0
-22 -160 0
-23 -161 0
-24 -162 0
-13 -121 0
-14 -122 0
-15 -123 0
-16 -124 0
-17 -125 0
-18 -126 0
-55 -85 0
-56 -86 0
-57 -87 0
-58 -88 0
-59 -89 0
-60 -90 0
-1 -217 0
-2 -218 0
-3 -219 0
-4 -220 0
-5 -221 0
-6 -222 0
-145 -187 0
-146 -188 0
-147 -189 0
-148 -190 0
-149 -191 0
-150 -192 0
-109 -217 0
-110 -218 0
-111 -219 0
-112 -220 0
-113 -221 0
-114 -222 0
-175 -181 0
-176 -182 0
-177 -183 0
-178 -184 0
-179 -185 0
-180 -186 0
-19 -127 0
-20 -128 0
-21 -129 0
-22 -130 0
-23 -131 0
-24 -132 0
-151 -235 0
-152 -236 0
-153 -237 0
-154 -238 0
-155 -239 0
-156 -240 0
-55 -151 0
-56 -152 0
-57 -153 0
-58 -154 0
-59 -155 0
-60 -156 0
-157 -217 0
-158 -218 0
-159 -219 0
-160 -220 0
-161 -221 0
-162 -222 0
-31 -97 0
-32 -98 0
-33 -99 0
-34 -100 0
-35 -101 0
-36 -102 0
-127 -193 0
-128 -194 0
-129 -195 0
-130 -196 0
-131 -197 0
-132 -198 0
-19 -193 0
-20 -194 0
-21 -195 0
-22 -196 0
-23 -197 0
-24 -198 0
-43 -211 0
-44 -212 0
-45 -213 0
-46 -214 0
-47 -215 0
-48 -216 0
-67 -115 0
-68 -116 0
-69 -117 0
-70 -118 0
-71 -119 0
-72 -120 0
-97 -163 0
-98 -164 0
-99 -165 0
-100 -166 0
-101 -167 0
-102 -168 0
-55 -223 0
-56 -224 0
-57 -225 0
-58 -226 0
-59 -227 0
-60 -228 0
-43 -55 0
-44 -56 0
-45 -57 0
-46 -58 0
-47 -59 0
-48 -60 0
-97 -193 0
-98 -194 0
-99 -195 0
-100 -196 0
-101 -197 0
-102 -198 0
-19 -73 0
-20 -74 0
-21 -75 0
-22 -76 0
-23 -77 0
-24 -78 0
-13 -181 0
-14 -182 0
-15 -183 0
-16 -184 0
-17 -185 0
-18 -186 0
-67 -217 0
-68 -218 0
-69 -219 0
-70 -220 0
-71 -221 0
-72 -222 0
-139 -199 0
-140 -200 0
-141 -201 0
-142 -202 0
-143 -203 0
-144 -204 0
-85 -229 0
-86 -230 0
-87 -231 0
-88 -232 0
-89 -233 0
-90 -234 0
-73 -235 0
-74 -236 0
-75 -237 0
-76 -238 0
-77 -239 0
-78 -240 0
-109 -187 0
-110 -188 0
-111 -189 0
-112 -190 0
-113 -191 0
-114 -192 0
-115 -235 0
-116 -236 0
-117 -237 0
-118 -238 0
-119 -239 0
-120 -240 0
-49 -139 0
-50 -140 0
-51 -141 0
-52 -142 0
-53 -143 0
-54 -144 0
-1 -187 0
-2 -188 0
-3 -189 0
-4 -190 0
-5 -191 0
-6 -192 0
-31 -85 0
-32 -86 0
-33 -87 0
-34 -88 0
-35 -89 0
-36 -90 0
-13 -217 0
-14 -218 0
-15 -219 0
-16 -220 0
-17 -221 0
-18 -222 0
-55 -181 0
-56 -182 0
-57 -183 0
-58 -184 0
-59 -185 0
-60 -186 0
-157 -187 0
-158 -188 0
-159 -189 0
-160 -190 0
-161 -191 0
-162 -192 0
-85 -127 0
-86 -128 0
-87 -129 0
-88 -130 0
-89 -131 0
-90 -132 0
-19 -223 0
-20 -224 0
-21 -225 0
-22 -226 0
-23 -227 0
-24 -228 0
-31 -193 0
-32 -194 0
-33 -195 0
-34 -196 0
-35 -197 0
-36 -198 0
-73 -85 0
-74 -86 0
-75 -87 0
-76 -88 0
-77 -89 0
-78 -90 0
-67 -145 0
-68 -146 0
-69 -147 0
-70 -148 0
-71 -149 0
-72 -150 0
-91 -193 0
-92 -194 0
-93 -195 0
-94 -196 0
-95 -197 0
-96 -198 0
-73 -163 0
-74 -164 0
-75 -165 0
-76 -166 0
-77 -167 0
-78 -168 0
-61 -193 0
-62 -194 0
-63 -195 0
-64 -196 0
-65 -197 0
-66 -198 0
-19 -169 0
-20 -170 0
-21 -171 0
-22 -172 0
-23 -173 0
-24 -174 0
-85 -139 0
-86 -140 0
-87 -141 0
-88 -142 0
-89 -143 0
-90 -144 0
-121 -187 0
-122 -188 0
-123 -189 0
-124 -190 0
-125 -191 0
-126 -192 0
-85 -217 0
-86 -218 0
-87 -219 0
-88 -220 0
-89 -221 0
-90 -222 0
-13 -187 0
-14 -188 0
-15 -189 0
-16 -190 0
-17 -191 0
-18 -192 0
-55 -91 0
-56 -92 0
-57 -93 0
-58 -94 0
-59 -95 0
-60 -96 0
-19 -235 0
-20 -236 0
-21 -237 0
-22 -238 0
-23 -239 0
-24 -240 0
-85 -121 0
-86 -122 0
-87 -123 0
-88 -124 0
-89 -125 0
-90 -126 0
-175 -235 0
-176 -236 0
-177 -237 0
-178 -238 0
-179 -239 0
-180 -240 0
-67 -109 0
-68 -110 0
-69 -111 0
-70 -112 0
-71 -113 0
-72 -114 0
-169 -187 0
-170 -188 0
-171 -189 0
-172 -190 0
-173 -191 0
-174 -192 0
-163 -235 0
-164 -236 0
-165 -237 0
-166 -238 0
-167 -239 0
-168 -240 0
-31 -199 0
-32 -200 0
-33 -201 0
-34 -202 0
-35 -203 0
-36 -204 0
-55 -193 0
-56 -194 0
-57 -195 0
-58 -196 0
-59 -197 0
-60 -198 0
-49 -67 0
-50 -68 0
-51 -69 0
-52 -70 0
-53 -71 0
-54 -72 0
-145 -211 0
-146 -212 0
-147 -213 0
-148 -214 0
-149 -215 0
-150 -216 0
-19 -103 0
-20 -104 0
-21 -105 0
-22 -106 0
-23 -107 0
-24 -108 0
-109 -151 0
-110 -152 0
-111 -153 0
-112 -154 0
-113 -155 0
-114 -156 0
-151 -205 0
-152 -206 0
-153 -207 0
-154 -208 0
-155 -209 0
-156 -210 0
-85 -181 0
-86 -182 0
-87 -183 0
-88 -184 0
-89 -185 0
-90 -186 0
-55 -121 0
-56 -122 0
-57 -123 0
-58 -124 0
-59 -125 0
-60 -126 0
-187 -217 0
-188 -218 0
-189 -219 0
-190 -220 0
-191 -221 0
-192 -222 0
-175 -217 0
-176 -218 0
-177 -219 0
-178 -220 0
-179 -221 0
-180 -222 0
-67 -91 0
-68 -92 0
-69 -93 0
-70 -94 0
-71 -95 0
-72 -96 0
-49 -217 0
-50 -218 0
-51 -219 0
-52 -220 0
-53 -221 0
-54 -222 0
-187 -235 0
-188 -236 0
-189 -237 0
-190 -238 0
-191 -239 0
-192 -240 0
-61 -223 0
-62 -224 0
-63 -225 0
-64 -226 0
-65 -227 0
-66 -228 0
-55 -199 0
-56 -200 0
-57 -201 0
-58 -202 0
-59 -203 0
-60 -204 0
-205 -217 0
-206 -218 0
-207 -219 0
-208 -220 0
-209 -221 0
-210 -222 0
-97 -217 0
-98 -218 0
-99 -219 0
-100 -220 0
-101 -221 0
-102 -222 0
-199 -229 0
-200 -230 0
-201 -231 0
-202 -232 0
-203 -233 0
-204 -234 0
-67 -193 0
-68 -194 0
-69 -195 0
-70 -196 0
-71 -197 0
-72 -198 0
-49 -85 0
-50 -86 0
-51 -87 0
-52 -88 0
-53 -89 0
-54 -90 0
-85 -205 0
-86 -206 0
-87 -207 0
-88 -208 0
-89 -209 0
-90 -210 0
-25 -67 0
-26 -68 0
-27 -69 0
-28 -70 0
-29 -71 0
-30 -72 0
-13 -115 0
-14 -116 0
-15 -117 0
-16 -118 0
-17 -119 0
-18 -120 0
-109 -211 0
-110 -212 0
-111 -213 0
-112 -214 0
-113 -215 0
-114 -216 0
-19 -133 0
-20 -134 0
-21 -135 0
-22 -136 0
-23 -137 0
-24 -138 0
-55 -157 0
-56 -158 0
-57 -159 0
-58 -160 0
-59 -161 0
-60 -162 0
-49 -97 0
-50 -98 0
-51 -99 0
-52 -100 0
-53 -101 0
-54 -102 0
-37 -55 0
-38 -56 0
-39 -57 0
-40 -58 0
-41 -59 0
-42 -60 0
-31 -127 0
-32 -128 0
-33 -129 0
-34 -130 0
-35 -131 0
-36 -132 0
-25 -127 0
-26 -128 0
-27 -129 0
-28 -130 0
-29 -131 0
-30 -132 0
-19 -199 0
-20 -200 0
-21 -201 0
-22 -202 0
-23 -203 0
-24 -204 0
-151 -211 0
-152 -212 0
-153 -213 0
-154 -214 0
-155 -215 0
-156 -216 0
-55 -127 0
-56 -128 0
-57 -129 0
-58 -130 0
-59 -131 0
-60 -132 0
-127 -223 0
-128 -224 0
-129 -225 0
-130 -226 0
-131 -227 0
-132 -228 0
-133 -229 0
-134 -230 0
-135 -231 0
-136 -232 0
-137 -233 0
-138 -234 0
-55 -235 0
-56 -236 0
-57 -237 0
-58 -238 0
-59 -239 0
-60 -240 0
-49 -187 0
-50 -188 0
-51 -189 0
-52 -190 0
-53 -191 0
-54 -192 0
-211 -235 0
-212 -236 0
-213 -237 0
-214 -238 0
-215 -239 0
-216 -240 0
-7 -181 0
-8 -182 0
-9 -183 0
-10 -184 0
-11 -185 0
-12 -186 0
-55 -229 0
-56 -230 0
-57 -231 0
-58 -232 0
-59 -233 0
-60 -234 0
-97 -187 0
-98 -188 0
-99 -189 0
-100 -190 0
-101 -191 0
-102 -192 0
-19 -79 0
-20 -80 0
-21 -81 0
-22 -82 0
-23 -83 0
-24 -84 0
-13 -175 0
-14 -176 0
-15 -177 0
-16 -178 0
-17 -179 0
-18 -180 0
-67 -223 0
-68 -224 0
-69 -225 0
-70 -226 0
-71 -227 0
-72 -228 0
-49 -55 0
-50 -56 0
-51 -57 0
-52 -58 0
-53 -59 0
-54 -60 0
-85 -223 0
-86 -224 0
-87 -225 0
-88 -226 0
-89 -227 0
-90 -228 0
-25 -85 0
-26 -86 0
-27 -87 0
-28 -88 0
-29 -89 0
-30 -90 0
-19 -145 0
-20 -146 0
-21 -147 0
-22 -148 0
-23 -149 0
-24 -150 0
-13 -109 0
-14 -110 0
-15 -111 0
-16 -112 0
-17 -113 0
-18 -114 0
-43 -97 0
-44 -98 0
-45 -99 0
-46 -100 0
-47 -101 0
-48 -102 0
-31 -67 0
-32 -68 0
-33 -69 0
-34 -70 0
-35 -71 0
-36 -72 0
-19 -115 0
-20 -116 0
-21 -117 0
-22 -118 0
-23 -119 0
-24 -120 0
-13 -211 0
-14 -212 0
-15 -213 0
-16 -214 0
-17 -215 0
-18 -216 0
-157 -205 0
-158 -206 0
-159 -207 0
-160 -208 0
-161 -209 0
-162 -210 0
-67 -85 0
-68 -86 0
-69 -87 0
-70 -88 0
-71 -89 0
-72 -90 0
-61 -97 0
-62 -98 0
-63 -99 0
-64 -100 0
-65 -101 0
-66 -102 0
-163 -211 0
-164 -212 0
-165 -213 0
-166 -214 0
-167 -215 0
-168 -216 0
-19 -229 0
-20 -230 0
-21 -231 0
-22 -232 0
-23 -233 0
-24 -234 0
-31 -223 0
-32 -224 0
-33 -225 0
-34 -226 0
-35 -227 0
-36 -228 0
-25 -223 0
-26 -224 0
-27 -225 0
-28 -226 0
-29 -227 0
-30 -228 0
-67 -151 0
-68 -152 0
-69 -153 0
-70 -154 0
-71 -155 0
-72 -156 0
-7 -121 0
-8 -122 0
-9 -123 0
-10 -124 0
-11 -125 0
-12 -126 0
-37 -229 0
-38 -230 0
-39 -231 0
-40 -232 0
-41 -233 0
-42 -234 0
-97 -205 0
-98 -206 0
-99 -207 0
-100 -208 0
-101 -209 0
-102 -210 0
-85 -235 0
-86 -236 0
-87 -237 0
-88 -238 0
-89 -239 0
-90 -240 0
-79 -187 0
-80 -188 0
-81 -189 0
-82 -190 0
-83 -191 0
-84 -192 0
-13 -169 0
-14 -170 0
-15 -171 0
-16 -172 0
-17 -173 0
-18 -174 0
-103 -235 0
-104 -236 0
-105 -237 0
-106 -238 0
-107 -239 0
-108 -240 0
-145 -235 0
-146 -236 0
-147 -237 0
-148 -238 0
-149 -239 0
-150 -240 0
-139 -187 0
-140 -188 0
-141 -189 0
-142 -190 0
-143 -191 0
-144 -192 0
-19 -175 0
-20 -176 0
-21 -177 0
-22 -178 0
-23 -179 0
-24 -180 0
-109 -175 0
-110 -176 0
-111 -177 0
-112 -178 0
-113 -179 0
-114 -180 0
